c read Graph
c width = 127
c time = 492 ms
c width = 9
c time = 698 ms
c width = 8
c time = 786 ms
c width = 8
c time = 4053 ms
s td 126 9 140
b 1 1 2 21
b 2 2 3 21 22
b 3 18 19 39 40
b 4 3 21 22 41
b 5 18 39 40 60
b 6 81 101 102 122
b 7 100 119 120 139
b 8 81 102 122 123
b 9 100 119 138 139
b 10 3 4 5 24
b 11 3 5 23 24 42 61
b 12 5 23 24 42 44 61 63
b 13 5 24 42 44 61 63 82
b 14 42 61 62 63 82
b 15 23 42 43 44 63
b 16 3 23 41 42 61
b 17 3 22 23 41 42
b 18 44 63 64 65 84
b 19 5 24 26 45 65 84 105 126
b 20 5 24 44 45 65 84 105 126
b 21 5 24 44 61 63 82 84 105 126
b 22 5 24 44 63 65 84 105 126
b 23 5 24 44 63 82 84 105 126
b 24 5 24 25 26 45
b 25 5 26 45 65 84 86 105 126
b 26 5 26 45 65 66 86 105 126
b 27 5 26 45 47 66 86 105 126
b 28 5 26 47 66 86 105 107 126
b 29 5 26 47 66 86 87 107 126
b 30 5 26 47 66 68 87 107 126
b 31 5 26 47 68 87 107 126 128
b 32 5 26 47 68 87 107 108 128
b 33 5 26 47 68 87 89 108 128
b 34 5 9 26 28 47 68 89 108 128
b 35 9 28 47 49 68 89 108 128
b 36 9 28 30 49 68 89 108 128
b 37 9 30 49 68 70 89 108 128
b 38 9 30 49 51 70 89 108 128
b 39 9 30 51 70 89 108 110 128 130
b 40 9 30 51 70 89 91 110 130
b 41 9 30 51 70 72 91 110 130
b 42 9 13 30 32 51 72 91 110 130
b 43 13 32 51 53 72 91 110 130
b 44 13 32 34 53 72 91 110 130
b 45 13 34 53 72 91 110 112 130 132
b 46 13 34 53 72 91 93 112 132
b 47 13 34 53 72 74 93 112 132
b 48 13 34 53 55 74 93 112 132
b 49 13 34 55 74 93 112 114 132 134
b 50 13 34 55 74 93 95 114 134
b 51 13 34 55 74 76 95 114 134
b 52 13 17 34 36 55 76 95 114 134
b 53 17 36 55 57 76 95 114 134
b 54 17 36 57 76 95 114 116 134 136
b 55 17 36 57 76 95 97 116 136
b 56 17 36 57 76 78 97 116 136
b 57 17 36 57 78 97 99 116 136
b 58 17 36 57 78 80 97 99 116 136
b 59 78 80 97 99 116 118 136
b 60 80 97 99 116 118 136 138
b 61 97 116 117 118 136 138
b 62 117 136 137 138
b 63 80 99 100 118 138
b 64 99 100 118 119 138
b 65 78 97 98 99 118
b 66 17 36 57 59 78 80 99
b 67 59 78 79 80 99
b 68 17 36 38 57 59 78 80
b 69 38 57 58 59 78
b 70 17 38 59 60 80
b 71 17 18 38 59 60
b 72 18 38 39 59 60
b 73 17 36 37 38 57
b 74 57 76 77 78 97
b 75 76 95 96 97 116
b 76 95 114 115 116 134 136
b 77 115 134 135 136
b 78 36 55 56 57 76
b 79 13 15 17 34 36 55
b 80 15 34 35 36 55
b 81 13 14 15 34
b 82 15 16 17 36
b 83 55 74 75 76 95
b 84 74 93 94 95 114
b 85 93 112 113 114 132 134
b 86 113 132 133 134
b 87 34 53 54 55 74
b 88 53 72 73 74 93
b 89 72 91 92 93 112
b 90 91 110 111 112 130 132
b 91 111 130 131 132
b 92 13 32 33 34 53
b 93 32 51 52 53 72
b 94 9 11 13 30 32 51
b 95 9 10 11 30
b 96 11 30 31 32 51
b 97 11 12 13 32
b 98 51 70 71 72 91
b 99 70 89 90 91 110
b 100 89 108 109 110 128 130
b 101 109 128 129 130
b 102 30 49 50 51 70
b 103 49 68 69 70 89
b 104 9 28 29 30 49
b 105 28 47 48 49 68
b 106 5 7 9 26 28 47
b 107 7 8 9 28
b 108 5 6 7 26
b 109 7 26 27 28 47
b 110 68 87 88 89 108
b 111 107 126 127 128
b 112 47 66 67 68 87
b 113 86 105 106 107 126
b 114 26 45 46 47 66
b 115 65 84 85 86 105
b 116 61 63 82 84 105 124 126
b 117 61 63 82 84 103 105 124
b 118 63 82 83 84 103
b 119 84 103 104 105 124
b 120 61 82 103 123 124
b 121 61 81 82 103 123
b 122 81 82 102 103 123
b 123 105 124 125 126
b 124 120 139 140
b 125 101 121 122
b 126 19 20 40
1 2
2 4
3 126
3 5
4 17
5 72
6 125
6 8
7 124
7 9
8 122
9 64
10 11
11 16
11 12
12 15
12 13
13 21
13 14
16 17
18 22
19 24
19 25
19 20
20 22
21 116
21 23
22 23
25 115
25 26
26 27
27 114
27 28
28 113
28 29
29 30
30 112
30 31
31 111
31 32
32 33
33 110
33 34
34 106
34 35
35 105
35 36
36 104
36 37
37 103
37 38
38 102
38 39
39 100
39 40
40 99
40 41
41 98
41 42
42 94
42 43
43 93
43 44
44 92
44 45
45 90
45 46
46 89
46 47
47 88
47 48
48 87
48 49
49 85
49 50
50 84
50 51
51 83
51 52
52 79
52 53
53 78
53 54
54 76
54 55
55 75
55 56
56 74
56 57
57 58
58 66
58 59
59 65
59 60
60 63
60 61
61 62
63 64
66 67
66 68
68 70
68 73
68 69
70 71
71 72
76 77
79 81
79 82
79 80
85 86
90 91
94 95
94 97
94 96
100 101
106 108
106 107
106 109
116 123
116 117
117 120
117 118
117 119
120 121
121 122
